(declare-sort sk_a 0)
(declare-datatypes ()
  ((list (nil) (cons (head sk_a) (tail list)))))
(declare-datatypes () ((Nat (Z) (S (p Nat)))))
(declare-fun take (Nat list) list)
(declare-fun drop (Nat list) list)
(declare-fun append (list list) list)
(assert
  (not
    (forall ((n Nat) (xs list))
      (= (append (take n xs) (drop n xs)) xs))))
(assert
  (forall ((x Nat) (y list))
    (= (take x y)
      (ite
        (is-S x)
        (ite (is-cons y) (cons (head y) (take (p x) (tail y))) nil) nil))))
(assert
  (forall ((x Nat) (y list))
    (= (drop x y)
      (ite (is-S x) (ite (is-cons y) (drop (p x) (tail y)) nil) y))))
(assert
  (forall ((x list) (y list))
    (= (append x y)
      (ite (is-cons x) (cons (head x) (append (tail x) y)) y))))
(check-sat)
